db/data/8800209973219822307199682801871532664.z3.out
-------------------
2500.103705271
